PROBLEM NAME : benchmark_05_12cities
KNAPSACK DATA TYPE : uncorrelated
DIMENSION : 12
NUMBER OF ITEMS : 18
CAPACITY OF KNAPSACK : 220
MIN SPEED : 0.1
MAX SPEED : 1.0
RENTING RATIO : 0.58
EDGE_WEIGHT_TYPE : CEIL_2D
NODE_COORD_SECTION
1 45 45
2 10 70
3 72 82
4 85 25
5 8 12
6 58 62
7 22 18
8 68 38
9 35 55
10 80 72
11 14 40
12 50 12
ITEMS SECTION
1 110 28 2
2 75 18 3
3 140 35 4
4 62 15 5
5 90 23 6
6 48 11 7
7 100 26 8
8 58 14 9
9 125 30 10
10 52 13 11
11 88 21 12
12 40 10 2
13 95 24 6
14 68 17 8
15 32 8 4
16 105 27 9
17 55 14 7
18 72 19 11
